c Command line: hgen8 145 40
p cnf 145 228
72 123 107 134 0
74 131 45 135 0
69 96 106 125 0
94 128 124 91 0
39 64 81 136 0
108 82 58 141 0
52 95 120 4 0
24 71 79 101 0
104 31 3 105 0
111 15 67 65 0
27 14 127 84 0
139 25 38 63 0
8 78 46 103 0
57 47 30 5 0
62 61 115 37 0
142 140 144 35 0
145 130 87 137 0
113 116 132 80 0
12 117 53 44 0
121 32 77 75 0
33 20 17 90 0
66 102 10 143 0
56 49 50 40 0
51 83 119 1 0
126 133 73 98 0
118 129 13 26 0
122 2 42 6 0
41 11 68 99 0
34 16 86 23 0
76 54 93 60 0
-1 -2 0
-1 -3 0
-1 -4 0
-1 -5 0
-2 -3 0
-2 -4 0
-2 -5 0
-3 -4 0
-3 -5 0
-4 -5 0
-6 -8 0
-6 -10 0
-8 -10 0
-11 -12 0
-11 -13 0
-11 -14 0
-11 -15 0
-12 -13 0
-12 -14 0
-12 -15 0
-13 -14 0
-13 -15 0
-14 -15 0
-16 -17 0
-16 -20 0
-17 -20 0
-23 -24 0
-23 -25 0
-24 -25 0
-26 -27 0
-26 -30 0
-27 -30 0
-31 -32 0
-31 -33 0
-31 -34 0
-31 -35 0
-32 -33 0
-32 -34 0
-32 -35 0
-33 -34 0
-33 -35 0
-34 -35 0
-37 -38 0
-37 -39 0
-37 -40 0
-38 -39 0
-38 -40 0
-39 -40 0
-41 -42 0
-41 -44 0
-41 -45 0
-42 -44 0
-42 -45 0
-44 -45 0
-46 -47 0
-46 -49 0
-46 -50 0
-47 -49 0
-47 -50 0
-49 -50 0
-51 -52 0
-51 -53 0
-51 -54 0
-52 -53 0
-52 -54 0
-53 -54 0
-56 -57 0
-56 -58 0
-56 -60 0
-57 -58 0
-57 -60 0
-58 -60 0
-61 -62 0
-61 -63 0
-61 -64 0
-61 -65 0
-62 -63 0
-62 -64 0
-62 -65 0
-63 -64 0
-63 -65 0
-64 -65 0
-66 -67 0
-66 -68 0
-66 -69 0
-67 -68 0
-67 -69 0
-68 -69 0
-71 -72 0
-71 -73 0
-71 -74 0
-71 -75 0
-72 -73 0
-72 -74 0
-72 -75 0
-73 -74 0
-73 -75 0
-74 -75 0
-76 -77 0
-76 -78 0
-76 -79 0
-76 -80 0
-77 -78 0
-77 -79 0
-77 -80 0
-78 -79 0
-78 -80 0
-79 -80 0
-81 -82 0
-81 -83 0
-81 -84 0
-82 -83 0
-82 -84 0
-83 -84 0
-86 -87 0
-86 -90 0
-87 -90 0
-91 -93 0
-91 -94 0
-91 -95 0
-93 -94 0
-93 -95 0
-94 -95 0
-96 -98 0
-96 -99 0
-98 -99 0
-101 -102 0
-101 -103 0
-101 -104 0
-101 -105 0
-102 -103 0
-102 -104 0
-102 -105 0
-103 -104 0
-103 -105 0
-104 -105 0
-106 -107 0
-106 -108 0
-107 -108 0
-111 -113 0
-111 -115 0
-113 -115 0
-116 -117 0
-116 -118 0
-116 -119 0
-116 -120 0
-117 -118 0
-117 -119 0
-117 -120 0
-118 -119 0
-118 -120 0
-119 -120 0
-121 -122 0
-121 -123 0
-121 -124 0
-121 -125 0
-122 -123 0
-122 -124 0
-122 -125 0
-123 -124 0
-123 -125 0
-124 -125 0
-126 -127 0
-126 -128 0
-126 -129 0
-126 -130 0
-127 -128 0
-127 -129 0
-127 -130 0
-128 -129 0
-128 -130 0
-129 -130 0
-131 -132 0
-131 -133 0
-131 -134 0
-131 -135 0
-132 -133 0
-132 -134 0
-132 -135 0
-133 -134 0
-133 -135 0
-134 -135 0
-136 -137 0
-136 -139 0
-136 -140 0
-137 -139 0
-137 -140 0
-139 -140 0
-141 -142 0
-141 -143 0
-141 -144 0
-141 -145 0
-142 -143 0
-142 -144 0
-142 -145 0
-143 -144 0
-143 -145 0
-144 -145 0
